96 84 2 58 82 59 99 49 39 33 80 3 83 37 55 52 85 92 7 4 9 97 79 27 41 45 63 11 30 18 19 15 89 57 0 71 60 38 5 46 68 54 16 86 34 44 61 73 14 72 21 29 53 75 13 95 48 78 56 94 90 91 12 67 40 31 88 62 17 70 1 47 25 93 8 28 69 6 74 10 36 98 50 43 65 87 81 35 23 22 20 42 32 66 26 64 24 77 76 51 

